c ---- [ banner ] ------------------------------------------------------------
c
c Kissat SAT Solver
c 
c Copyright (c) 2021-2023 Armin Biere University of Freiburg
c Copyright (c) 2019-2021 Armin Biere Johannes Kepler University Linz
c 
c Version 3.1.1 unknown
c gcc (Ubuntu 9.4.0-1ubuntu1~20.04.2) 9.4.0 -W -Wall -O3 -DNDEBUG
c Mon Feb 26 18:18:52 CET 2024 Linux OptiPlex-7080 5.15.0-88-generic x86_64
c
c ---- [ parsing ] -----------------------------------------------------------
c
c opened and reading DIMACS file:
c
c   /home/oliveras/SAT-comp-2023//71dbf7ab78ef93c3d491c67752f03fd1-hwmcc10-timeframe-expansion-k45-nusmvguidancep9-tseitin.cnf
c
c parsed 'p cnf 64138 181073' header
c closing input after reading 3037357 bytes (3 MB)
c finished parsing after 0.07 seconds
c
c ---- [ options ] -----------------------------------------------------------
c
c --seed=1                         (different from default '0')
c
c ---- [ solving ] -----------------------------------------------------------
c
c  seconds switched conflicts     irredundant variables
c         MB reductions redundant        trail     remaining
c          level restarts     binary        glue
c
c *  0.07 11 0 0 0  0   0   0 120714 60357 0% 0 64136 100%
c {  0.07 11 0 0 0  0   0   0 120714 60357 0% 0 64136 100%
c i  0.08 12 32 0 0  1  42  31 120722 60357 18% 3 64131 100%
c i  0.08 12 37 0 0  1  44  31 120723 60357 18% 2 64129 100%
c i  0.08 12 47 0 0  1  49  34 120724 60357 17% 2 64127 100%
c i  0.08 12 62 0 0  1  59  38 120729 60357 16% 2 64125 100%
c i  0.08 12 79 0 0  1  76  50 120733 60357 15% 2 64123 100%
c i  0.09 12 95 0 0  1 106  70 120742 60357 15% 2 64121 100%
c i  0.19 13 625 0 0 59 394 261 120837 60357 40% 2 64120 100%
c i  0.19 13 613 0 0 65 402 266 120839 60357 39% 2 64119 100%
c i  0.20 13 598 0 0 76 413 274 120841 60357 39% 2 64118 100%
c i  0.20 13 590 0 0 80 419 279 120841 60357 38% 2 64117 100%
c i  0.20 13 581 0 0 85 426 284 120842 60357 38% 2 64116 100%
c i  0.23 13 513 0 0 126 516 360 120853 60357 33% 2 64114 100%
c i  0.23 13 489 0 0 132 545 373 120866 60357 32% 2 64113 100%
c i  0.25 13 460 0 0 150 584 408 120868 60357 30% 2 64112 100%
c i  0.28 13 413 0 0 185 659 467 120880 60357 29% 2 64111 100%
c i  0.28 13 410 0 0 188 665 472 120880 60357 29% 2 64110 100%
c i  0.30 13 377 0 0 202 731 522 120895 60357 27% 2 64109 100%
c i  0.30 13 374 0 0 205 738 526 120897 60357 27% 2 64108 100%
c
c  seconds   switched conflicts      irredundant  variables
c         MB  reductions  redundant          trail     remaining
c           level restarts       binary         glue
c
c i  0.30 13 369 0 0 210 750 535 120897 60357 27% 2 64107 100%
c i  0.35 13 337 0 0 226 852 632 120901 60357 29% 2 64106 100%
c i  0.35 13 326 0 0 237 882 658 120904 60357 28% 2 64105 100%
c i  0.36 13 309 0 0 258 932 702 120909 60357 27% 3 64104 100%
c i  0.37 13 303 0 0 268 952 718 120912 60357 26% 3 64103 100%
c -  0.38 13 290 0 1 276 1000 716 120806 60357 26% 3 64103 100%
c }  0.38 13 290 1 1 276 1000 716 120806 60357 26% 3 64103 100%
c [  0.38 13 0 1 1 276 1000 716 120806 60357 0% 0 64103 100%
c B  0.39 13 189 1 1 276 1001 716 120807 60357 27% 1 64103 100%
c i  0.48 13 1265 1 1 276 1801 1419 120883 60357 66% 5 63379 99%
c -  0.51 13 1310 1 2 276 2003 1458 116904 60357 70% 5 62170 97%
c W  0.54 14 1310 1 2 276 2003 1458 116904 58922 70% 5 62170 97%
c i  0.61 14 785 1 2 277 2692 2085 116943 58921 47% 5 62169 97%
c d  0.63 15 756 1 2 277 2764 2145 117680 58182 45% 5 62167 97%
c b  0.64 15 756 1 2 277 2764 2145 117680 58182 45% 5 61907 97%
c u  0.66 15 756 1 2 277 2764 2096 117698 58182 45% 5 61723 96%
c v  0.67 15 756 1 2 277 2764 2045 117698 58182 45% 5 61723 96%
c w  0.70 15 756 1 2 277 2764 2048 117975 57583 45% 5 61723 96%
c =  0.76 16 756 1 2 277 2764 2048 120590 56444 45% 5 60015 94%
c d  0.77 16 756 1 2 277 2764 2017 117219 56239 45% 5 59883 93%
c
c  seconds   switched conflicts        irredundant  variables
c         MB  reductions   redundant           trail     remaining
c           level restarts         binary         glue
c
c t  0.78 16 756 1 2 277 2764 2017 117183 56239 45% 5 59880 93%
c b  0.79 16 756 1 2 277 2764 2017 117183 56239 45% 5 59869 93%
c i  0.79 16 756 1 2 277 2764 2017 117183 56239 45% 5 59869 93%
c -  0.88 16 564 1 3 278 3418 2208 113630 56238 38% 5 59869 93%
c i  0.94 16 460 1 3 278 3982 2705 113659 56238 33% 5 59868 93%
c ]  0.95 16 448 2 3 278 4071 2779 113668 56238 32% 5 59868 93%
c {  0.95 16 290 2 3 278 4071 2779 113668 56238 26% 3 59868 93%
c i  0.95 16 289 2 3 278 4075 2780 113668 56238 26% 3 59867 93%
c i  0.96 16 288 2 3 278 4077 2780 113669 56238 26% 3 59854 93%
c i  0.96 16 286 2 3 278 4085 2781 113675 56238 26% 2 59853 93%
c i  0.96 16 286 2 3 278 4086 2781 113675 56238 26% 2 59826 93%
c i  0.97 16 243 2 3 280 4288 2940 113706 56238 25% 2 59825 93%
c i  0.97 16 243 2 3 280 4291 2939 113708 56238 25% 2 59824 93%
c i  1.00 16 212 2 3 285 4517 3119 113747 56237 27% 2 59821 93%
c i  1.00 16 212 2 3 285 4518 3119 113747 56237 27% 2 59820 93%
c i  1.00 16 212 2 3 285 4519 3119 113747 56237 27% 2 59808 93%
c i  1.01 16 203 2 3 288 4596 3183 113758 56237 28% 2 59800 93%
c i  1.01 16 202 2 3 288 4598 3183 113759 56237 28% 2 59796 93%
c i  1.01 16 202 2 3 288 4601 3184 113760 56237 28% 2 59795 93%
c i  1.01 16 198 2 3 288 4636 3209 113764 56236 27% 2 59771 93%
c
c  seconds   switched conflicts        irredundant  variables
c         MB  reductions   redundant           trail     remaining
c           level restarts         binary         glue
c
c }  1.07 16 166 3 3 302 5071 3572 113832 56234 27% 2 59771 93%
c [  1.07 16 448 3 3 302 5071 3572 113832 56234 32% 5 59771 93%
c I  1.07 16 448 3 3 302 5071 3572 113832 56234 32% 5 59771 93%
c -  1.08 16 437 3 4 302 5150 2731 113503 56233 32% 5 59771 93%
c i  1.09 16 425 3 4 302 5250 2822 113507 56233 31% 5 59770 93%
c d  1.14 16 396 3 4 302 5508 3031 113583 56024 30% 5 59743 93%
c b  1.14 16 396 3 4 302 5508 3031 113583 56024 30% 5 59336 93%
c u  1.16 16 396 3 4 302 5508 2965 113598 56024 30% 5 59295 92%
c v  1.17 16 396 3 4 302 5508 2935 113601 56024 30% 5 59295 92%
c w  1.19 16 396 3 4 302 5508 2935 113766 55488 30% 5 59280 92%
c =  1.24 16 396 3 4 302 5508 2935 114054 55392 30% 5 59130 92%
c d  1.25 16 396 3 4 302 5508 2869 113265 55361 30% 5 58929 92%
c t  1.26 16 396 3 4 302 5508 2869 113251 55361 30% 5 58929 92%
c b  1.27 16 396 3 4 302 5508 2869 113251 55361 30% 5 58766 92%
c i  1.27 16 396 3 4 302 5508 2869 113251 55361 30% 5 58766 92%
c ]  1.35 16 346 4 4 302 6090 3381 113283 55361 29% 5 58766 92%
c {  1.35 16 166 4 4 302 6090 3381 113283 55361 27% 2 58766 92%
c i  1.36 16 166 4 4 305 6105 3393 113283 55361 27% 2 58763 92%
c i  1.36 16 166 4 4 305 6106 3393 113283 55361 27% 2 58646 91%
c i  1.37 16 159 4 4 328 6194 3471 113291 55361 26% 2 58645 91%
c
c  seconds   switched conflicts        irredundant  variables
c         MB  reductions   redundant           trail     remaining
c           level restarts         binary         glue
c
c i  1.38 16 158 4 4 332 6221 3491 113293 55361 26% 2 58640 91%
c i  1.38 16 158 4 4 335 6227 3494 113295 55361 26% 2 58639 91%
c i  1.39 16 154 4 4 355 6304 3556 113307 55361 26% 2 58638 91%
c i  1.42 16 148 4 4 403 6415 3652 113318 55361 25% 2 58637 91%
c i  1.42 17 147 4 4 407 6426 3660 113320 55361 25% 2 58636 91%
c i  1.44 17 143 4 4 439 6505 3714 113328 55361 25% 3 58628 91%
c i  1.50 17 137 4 4 526 6705 3884 113348 55361 24% 3 58627 91%
c i  1.51 17 132 4 4 562 6799 3965 113356 55361 23% 3 58626 91%
c i  1.53 17 129 4 4 585 6881 4031 113368 55361 23% 3 58625 91%
c i  1.53 17 129 4 4 586 6882 4031 113368 55361 23% 3 58624 91%
c i  1.54 17 128 4 4 594 6903 4047 113371 55361 23% 3 58054 91%
c i  1.54 17 128 4 4 594 6904 4047 113371 55361 23% 3 58042 90%
c i  1.54 17 128 4 4 597 6913 4053 113373 55361 23% 3 57882 90%
c i  1.55 17 126 4 4 604 6954 4088 113376 55361 22% 3 57881 90%
c i  1.55 17 126 4 4 606 6960 4093 113376 55361 22% 3 57880 90%
c i  1.55 17 125 4 4 609 6966 4097 113377 55361 22% 3 57879 90%
c i  1.56 17 124 4 4 623 7000 4124 113381 55361 22% 3 57878 90%
c i  1.57 17 124 4 4 626 7005 4128 113381 55361 22% 3 57871 90%
c i  1.58 17 122 4 4 640 7077 4187 113389 55361 22% 3 57870 90%
c i  1.58 17 122 4 4 642 7082 4189 113389 55361 22% 3 57869 90%
c
c  seconds   switched conflicts        irredundant  variables
c         MB  reductions   redundant           trail     remaining
c           level restarts         binary         glue
c
c i  1.58 17 122 4 4 644 7087 4192 113390 55361 22% 3 57868 90%
c -  1.60 17 120 4 5 660 7152 3229 109623 55361 22% 3 57868 90%
c i  1.61 17 120 4 5 680 7241 3296 109637 55361 22% 3 57867 90%
c i  1.62 17 119 4 5 688 7262 3307 109645 55361 22% 3 57866 90%
c i  1.63 17 118 4 5 708 7306 3346 109649 55361 21% 3 57865 90%
c i  1.64 17 117 4 5 716 7325 3361 109652 55361 21% 3 57864 90%
c i  1.65 17 117 4 5 722 7345 3376 109656 55361 21% 3 57863 90%
c i  1.65 17 116 4 5 725 7351 3381 109656 55361 21% 3 57830 90%
c i  1.66 17 115 4 5 743 7397 3418 109662 55361 21% 3 57827 90%
c i  1.68 17 113 4 5 759 7469 3472 109675 55361 21% 3 57824 90%
c i  1.71 17 111 4 5 796 7560 3550 109681 55361 21% 3 57821 90%
c i  1.71 17 110 4 5 802 7574 3560 109684 55361 21% 3 57820 90%
c i  1.71 17 110 4 5 805 7580 3563 109686 55361 21% 3 57819 90%
c i  1.72 17 109 4 5 824 7624 3600 109691 55361 21% 3 57818 90%
c i  1.74 17 108 4 5 844 7672 3633 109699 55361 21% 3 57817 90%
c i  1.74 17 107 4 5 860 7709 3661 109702 55361 21% 3 57816 90%
c i  1.75 17 107 4 5 865 7722 3671 109702 55361 21% 3 57815 90%
c i  1.76 17 105 4 5 885 7803 3739 109710 55361 20% 3 57814 90%
c i  1.79 17 105 4 5 911 7873 3798 109718 55360 20% 3 57813 90%
c i  1.80 17 105 4 5 926 7907 3828 109721 55360 20% 3 57812 90%
c
c  seconds   switched conflicts        irredundant  variables
c         MB  reductions   redundant           trail     remaining
c           level restarts         binary         glue
c
c i  1.85 17 101 4 5 995 8081 3971 109740 55360 20% 3 57811 90%
c i  1.86 17 101 4 5 1001 8105 3989 109743 55360 20% 3 57805 90%
c i  1.86 17 101 4 5 1001 8106 3989 109743 55360 20% 3 57801 90%
c i  1.88 17 99 4 5 1023 8185 4052 109750 55360 20% 3 57793 90%
c }  1.93 17 100 5 5 1046 8442 4267 109784 55360 21% 3 57793 90%
c [  1.93 17 346 5 5 1046 8442 4267 109784 55360 29% 5 57793 90%
c B  1.98 17 319 5 5 1046 8842 4611 109810 55359 29% 5 57793 90%
c i  2.00 17 317 5 5 1046 8937 4697 109814 55359 29% 5 57790 90%
c -  2.06 17 305 5 6 1046 9388 4453 109637 55359 28% 5 57790 90%
c i  2.11 17 290 5 6 1047 9690 4722 109651 55359 27% 5 57789 90%
c d  2.38 17 235 5 6 1048 11190 6091 110345 53888 30% 5 57773 90%
c d  2.38 17 235 5 6 1048 11190 6076 109191 53579 30% 5 57100 89%
c b  2.41 17 235 5 6 1048 11190 6076 109191 53579 30% 5 56832 89%
c u  2.44 17 235 5 6 1048 11190 5975 109274 53579 30% 5 56815 89%
c v  2.48 17 235 5 6 1048 11190 5858 109281 53579 30% 5 56815 89%
c w  2.52 17 235 5 6 1048 11190 5860 109576 53054 30% 5 56719 88%
c =  2.65 17 235 5 6 1048 11190 5860 111058 52379 30% 5 55743 87%
c d  2.67 17 235 5 6 1048 11190 5768 108975 52283 30% 5 55672 87%
c d  2.67 17 235 5 6 1048 11190 5768 108911 52259 30% 5 55631 87%
c t  2.69 17 235 5 6 1048 11190 5768 108766 52259 30% 5 55631 87%
c
c  seconds   switched   conflicts        irredundant  variables
c         MB  reductions     redundant           trail     remaining
c           level  restarts          binary         glue
c
c b  2.71 17 235 5 6 1048 11190 5768 108766 52259 30% 5 54654 85%
c i  2.71 17 235 5 6 1048 11190 5768 108766 52259 30% 5 54654 85%
c -  2.83 16 217 5 7 1048 11841 5470 105098 51242 29% 5 54654 85%
c i  2.96 16 207 5 7 1049 12952 6512 105128 51242 30% 5 54646 85%
c ]  2.98 16 207 6 7 1049 13082 6620 105139 51242 30% 5 54646 85%
c {  2.98 16 100 6 7 1049 13082 6620 105139 51242 21% 3 54646 85%
c i  2.98 16 100 6 7 1052 13092 6627 105141 51242 21% 3 54625 85%
c i  3.00 16 99 6 7 1071 13161 6685 105149 51242 21% 3 54624 85%
c i  3.00 16 99 6 7 1075 13177 6697 105150 51242 21% 3 54487 85%
c i  3.01 16 98 6 7 1086 13228 6740 105155 51242 21% 3 54486 85%
c i  3.02 16 97 6 7 1103 13291 6800 105157 51242 21% 3 54371 85%
c i  3.03 16 96 6 7 1121 13352 6850 105163 51242 20% 3 54166 84%
c i  3.09 16 92 6 7 1152 13674 7125 105196 51241 21% 3 54038 84%
c 2  3.12 16 90 6 7 1180 13822 7245 104809 51241 20% 3 54035 84%
c s  3.13 16 90 6 7 1180 13822 7245 104818 50865 20% 3 54035 84%
c e  3.81 17 90 6 7 1180 13822 7245 20811 38930 20% 3 10051 16%
c 2  3.81 17 90 6 7 1180 13822 7245 20663 38930 20% 3 10051 16%
c s  3.83 17 90 6 7 1180 13822 7245 21216 35615 20% 3 10051 16%
c e  3.88 17 90 6 7 1180 13822 7245 19807 35921 20% 3 9348 15%
c ^  3.88 17 90 6 7 1180 13822 7245 19807 35921 20% 3 9348 15%
c
c  seconds  switched   conflicts      irredundant variables
c         MB reductions     redundant         trail    remaining
c          level  restarts        binary         glue
c
c i  3.90 17 85 6 7 1284 14212 612 19835 35921 20% 3 9346 15%
c i  3.90 17 85 6 7 1286 14218 616 19836 35921 20% 3 9309 15%
c i  3.90 17 85 6 7 1287 14221 616 19838 35921 20% 3 9294 14%
c i  3.90 17 85 6 7 1288 14223 616 19839 35921 20% 3 9288 14%
c i  3.91 17 83 6 7 1323 14352 728 19847 35921 19% 3 9273 14%
c i  3.91 17 84 6 7 1325 14359 732 19849 35921 19% 3 9272 14%
c i  3.92 17 83 6 7 1344 14467 815 19862 35920 19% 3 9270 14%
c -  3.92 14 83 6 8 1348 14486 713 19023 35438 19% 3 9270 14%
c i  3.94 14 79 6 8 1434 14786 976 19044 35438 18% 3 9269 14%
c i  3.94 14 79 6 8 1438 14808 993 19044 35438 18% 3 9268 14%
c i  3.94 14 78 6 8 1466 14912 1084 19048 35438 18% 3 9267 14%
c i  3.94 14 78 6 8 1466 14936 1102 19051 35438 18% 3 9266 14%
c i  3.94 14 78 6 8 1467 15034 1188 19057 35437 18% 3 9263 14%
c i  3.95 14 78 6 8 1467 15038 1191 19057 35437 18% 3 9262 14%
c i  3.95 14 78 6 8 1467 15041 1193 19057 35437 18% 3 9259 14%
c i  3.97 14 72 6 8 1598 15730 1775 19109 35435 18% 3 9222 14%
c i  3.97 15 72 6 8 1598 15731 1775 19109 35435 18% 3 9216 14%
c i  3.98 15 72 6 8 1601 15871 1887 19126 35432 18% 3 9214 14%
c i  3.98 15 72 6 8 1614 15930 1932 19130 35430 18% 3 9208 14%
c i  3.98 15 71 6 8 1618 16011 1999 19140 35429 18% 3 9207 14%
c
c  seconds  switched   conflicts       irredundant variables
c         MB reductions     redundant          trail    remaining
c          level  restarts         binary         glue
c
c i  3.98 15 71 6 8 1618 16012 1999 19140 35429 18% 3 9206 14%
c i  4.02 15 68 6 8 1767 16565 2469 19187 35426 17% 4 9204 14%
c i  4.04 15 66 6 8 1851 17091 2937 19219 35424 18% 4 9194 14%
c }  4.05 15 66 7 8 1859 17152 2991 19224 35422 18% 4 9194 14%
c [  4.05 15 207 7 8 1859 17152 2991 19224 35422 30% 5 9194 14%
c W  4.05 15 207 7 8 1859 17152 2991 18980 35044 30% 5 9194 14%
c -  4.06 13 204 7 9 1859 17314 2765 18990 35043 30% 5 9194 14%
c i  4.08 13 195 7 9 1859 17834 3229 19015 35043 30% 5 9193 14%
c i  4.14 13 171 7 9 1861 19416 4669 19058 35038 28% 6 9191 14%
c d  4.16 13 167 7 9 1861 19948 5136 19112 34932 29% 6 9171 14%
c d  4.16 13 167 7 9 1861 19948 5136 19094 34927 29% 6 9162 14%
c b  4.17 13 167 7 9 1861 19948 5136 19094 34927 29% 6 9048 14%
c u  4.20 13 167 7 9 1861 19948 5076 19140 34927 29% 6 9048 14%
c v  4.22 14 167 7 9 1861 19948 5060 19140 34927 29% 6 9043 14%
c w  4.25 14 167 7 9 1861 19948 5098 19255 34283 29% 6 8939 14%
c =  4.32 14 167 7 9 1861 19948 5098 19541 33550 29% 6 8751 14%
c d  4.32 14 167 7 9 1861 19948 4952 19212 33403 29% 6 8715 14%
c d  4.32 14 167 7 9 1861 19948 4951 19204 33400 29% 6 8711 14%
c t  4.33 14 167 7 9 1861 19948 4951 18347 33400 29% 6 8709 14%
c b  4.34 14 167 7 9 1861 19948 4951 18347 33400 29% 6 8705 14%
c
c  seconds   switched   conflicts       irredundant variables
c         MB  reductions     redundant          trail    remaining
c           level  restarts         binary         glue
c
c i  4.34 14 167 7 9 1861 19948 4951 18347 33400 29% 6 8705 14%
c -  4.35 14 162 7 10 1861 20317 4294 17129 33400 29% 6 8705 14%
c -  4.46 14 137 7 11 1863 23480 5416 17162 33399 28% 6 8705 14%
c O  4.52 14 132 7 11 1864 24680 6566 17179 33399 29% 7 8705 14%
c 2  4.54 15 129 7 11 1864 25085 6929 17154 33399 29% 7 8705 14%
c s  4.55 15 129 7 11 1864 25085 6929 17528 31102 29% 7 8705 14%
c e  4.62 15 129 7 11 1864 25085 6929 15734 32448 29% 7 7578 12%
c 2  4.62 15 129 7 11 1864 25085 6929 15695 32448 29% 7 7577 12%
c s  4.64 15 129 7 11 1864 25085 6929 15888 30402 29% 7 7577 12%
c e  4.67 13 129 7 11 1864 25085 6929 15557 30678 29% 7 7440 12%
c ^  4.67 13 129 7 11 1864 25085 6929 15557 30678 29% 7 7440 12%
c -  4.75 13 119 7 12 1865 26796 5242 15571 30671 28% 7 7440 12%
c ]  4.78 13 115 8 12 1865 27702 6110 15574 30671 28% 7 7440 12%
c {  4.78 14 66 8 12 1865 27702 6110 15574 30671 18% 4 7440 12%
c i  4.79 14 65 8 12 1889 27842 6223 15593 30670 18% 4 7438 12%
c i  4.79 14 64 8 12 1910 27945 6314 15601 30670 18% 4 7435 12%
c i  4.79 14 64 8 12 1911 27949 6315 15603 30670 18% 4 7430 12%
c i  4.80 14 64 8 12 1917 27976 6334 15608 30668 18% 4 7419 12%
c i  4.80 14 63 8 12 1917 28057 6405 15610 30668 18% 4 7418 12%
c i  4.80 14 63 8 12 1917 28070 6417 15610 30668 17% 4 7416 12%
c
c  seconds  switched    conflicts       irredundant variables
c         MB  reductions     redundant          trail    remaining
c          level   restarts         binary         glue
c
c i  4.80 14 63 8 12 1917 28072 6417 15611 30668 17% 4 7402 12%
c i  4.80 14 63 8 12 1917 28075 6418 15612 30668 17% 4 7401 12%
c }  4.80 14 63 8 12 1917 28077 6418 15612 30668 17% 4 7180 11%
c 0  4.80 14 63 8 12 1917 28077 6418 15612 30668 17% 4 7180 11%
c
c ---- [ result ] ------------------------------------------------------------
c
s UNSATISFIABLE
c
c ---- [ profiling ] ---------------------------------------------------------
c
c           2.96   61.73 %  search
c           1.76   36.76 %  simplify
c           1.64   34.08 %  stable
c           1.33   27.65 %  focused
c           0.90   18.76 %  eliminate
c           0.84   17.52 %  probe
c           0.31    6.40 %  vivify
c           0.30    6.25 %  sweep
c           0.11    2.26 %  substitute
c           0.08    1.64 %  backbone
c           0.07    1.50 %  parse
c           0.07    1.38 %  subsume
c           0.06    1.26 %  reduce
c           0.05    0.97 %  transitive
c           0.02    0.48 %  walking
c           0.02    0.33 %  warmup
c =============================================
c           4.80  100.00 %  total
c
c ---- [ statistics ] --------------------------------------------------------
c
c chronological:                          293                1 %  conflicts
c conflicts:                            28077             5847.24 per second
c decisions:                           195258                6.95 per conflict
c eliminated:                           45939               72 %  variables
c jumped_reasons:                    19117659               49 %  propagations
c propagations:                      38881133          8097275    per second
c queue_decisions:                     104083               53 %  decision
c random_decisions:                     20715               11 %  decision
c random_sequences:                        16             1755    interval
c reductions:                              12             2340    interval
c rephased:                                 6             4680    interval
c restarts:                              1917               14.65 interval
c score_decisions:                      70460               36 %  decision
c strengthened:                         15065                1 %  checks
c substituted:                           3008                5 %  variables
c subsumed:                              6536                1 %  checks
c switched:                                 8             3510    interval
c vivified:                              1111               16 %  checks
c vivify_checks:                         6734             1684    per vivify
c vivify_units:                            25                0 %  variables
c walk_improved:                            2              100 %  walks
c walks:                                    2            14038    interval
c
c ---- [ resources ] ---------------------------------------------------------
c
c maximum-resident-set-size:         32399360 bytes         31 MB
c process-time:                             5s               4.80 seconds
c
c ---- [ shutting down ] -----------------------------------------------------
c
c exit 20
